
Gurobi 8.1.0 (linux64, Python) logging started Fri Mar  6 05:30:27 2020

Academic license - for non-commercial use only
Warning: Gurobi version mismatch between Python 8.1.1 and C library 8.1.0

Gurobi 8.1.0 (linux64, Python) logging started Fri Mar  6 05:31:35 2020

Academic license - for non-commercial use only
Warning: Gurobi version mismatch between Python 8.1.1 and C library 8.1.0

Gurobi 8.1.0 (linux64, Python) logging started Fri Mar  6 05:47:35 2020

Academic license - for non-commercial use only
Warning: Gurobi version mismatch between Python 8.1.1 and C library 8.1.0

Gurobi 8.1.0 (linux64, Python) logging started Fri Mar  6 09:03:57 2020

Academic license - for non-commercial use only
Warning: Gurobi version mismatch between Python 8.1.1 and C library 8.1.0

Gurobi 8.1.0 (linux64, Python) logging started Fri Mar  6 09:37:36 2020

Academic license - for non-commercial use only
Warning: Gurobi version mismatch between Python 8.1.1 and C library 8.1.0

Gurobi 8.1.0 (linux64, Python) logging started Tue Mar 24 07:05:39 2020

Academic license - for non-commercial use only
Warning: Gurobi version mismatch between Python 8.1.1 and C library 8.1.0

Gurobi 8.1.0 (linux64, Python) logging started Tue Mar 24 07:41:45 2020

Academic license - for non-commercial use only
Warning: Gurobi version mismatch between Python 8.1.1 and C library 8.1.0

Gurobi 8.1.0 (linux64, Python) logging started Tue Mar 24 09:44:33 2020

Academic license - for non-commercial use only
Warning: Gurobi version mismatch between Python 8.1.1 and C library 8.1.0

Gurobi 8.1.0 (linux64, Python) logging started Tue Mar 24 18:20:13 2020

Academic license - for non-commercial use only
Warning: Gurobi version mismatch between Python 8.1.1 and C library 8.1.0

Gurobi 8.1.0 (linux64, Python) logging started Wed Mar 25 03:43:41 2020

Academic license - for non-commercial use only
Warning: Gurobi version mismatch between Python 8.1.1 and C library 8.1.0

Gurobi 8.1.0 (linux64, Python) logging started Wed Mar 25 06:09:19 2020

Academic license - for non-commercial use only
Warning: Gurobi version mismatch between Python 8.1.1 and C library 8.1.0

Gurobi 8.1.0 (linux64, Python) logging started Wed Mar 25 08:13:06 2020

Academic license - for non-commercial use only
Warning: Gurobi version mismatch between Python 8.1.1 and C library 8.1.0

Gurobi 8.1.0 (linux64, Python) logging started Wed Mar 25 10:08:47 2020

Academic license - for non-commercial use only
Warning: Gurobi version mismatch between Python 8.1.1 and C library 8.1.0

Gurobi 8.1.0 (linux64, Python) logging started Wed Mar 25 12:08:13 2020

Academic license - for non-commercial use only
Warning: Gurobi version mismatch between Python 8.1.1 and C library 8.1.0

Gurobi 8.1.0 (linux64, Python) logging started Wed Mar 25 16:16:36 2020

Academic license - for non-commercial use only
Warning: Gurobi version mismatch between Python 8.1.1 and C library 8.1.0

Gurobi 8.1.0 (linux64, Python) logging started Wed Mar 25 22:03:18 2020

Academic license - for non-commercial use only
Warning: Gurobi version mismatch between Python 8.1.1 and C library 8.1.0

Gurobi 8.1.0 (linux64, Python) logging started Wed Mar 25 22:04:37 2020

Academic license - for non-commercial use only
Warning: Gurobi version mismatch between Python 8.1.1 and C library 8.1.0

Gurobi 8.1.0 (linux64, Python) logging started Sun Mar 29 02:31:46 2020

Academic license - for non-commercial use only
Warning: Gurobi version mismatch between Python 8.1.1 and C library 8.1.0

Gurobi 8.1.0 (linux64, Python) logging started Sun Mar 29 02:33:16 2020

Academic license - for non-commercial use only
Warning: Gurobi version mismatch between Python 8.1.1 and C library 8.1.0

Gurobi 8.1.0 (linux64, Python) logging started Sun Mar 29 02:35:08 2020

Academic license - for non-commercial use only
Warning: Gurobi version mismatch between Python 8.1.1 and C library 8.1.0

Gurobi 8.1.0 (linux64, Python) logging started Sun Mar 29 02:35:34 2020

Academic license - for non-commercial use only
Warning: Gurobi version mismatch between Python 8.1.1 and C library 8.1.0

Gurobi 8.1.0 (linux64, Python) logging started Sun Mar 29 02:51:59 2020

Academic license - for non-commercial use only
Warning: Gurobi version mismatch between Python 8.1.1 and C library 8.1.0
Optimize a model with 145 rows, 272 columns and 2857 nonzeros
Model has 128 general constraints
Variable types: 272 continuous, 0 integer (0 binary)
Coefficient statistics:
  Matrix range     [9e-06, 6e+00]
  Objective range  [1e+00, 1e+00]
  Bounds range     [3e+00, 6e+04]
  RHS range        [8e-05, 5e-01]
Presolve added 181 rows and 243 columns
Presolve time: 0.01s
Presolved: 326 rows, 515 columns, 3176 nonzeros
Presolved model has 190 SOS constraint(s)
Variable types: 241 continuous, 274 integer (274 binary)

Root relaxation: objective 0.000000e+00, 297 iterations, 0.01 seconds

    Nodes    |    Current Node    |     Objective Bounds      |     Work
 Expl Unexpl |  Obj  Depth IntInf | Incumbent    BestBd   Gap | It/Node Time

     0     0    0.00000    0   60          -    0.00000      -     -    0s
     0     0    0.00000    0   60          -    0.00000      -     -    0s
     0     2    0.00000    0   60          -    0.00000      -     -    0s

Cutting planes:
  Cover: 2
  Implied bound: 9

Explored 13992 nodes (477673 simplex iterations) in 2.23 seconds
Thread count was 8 (of 8 available processors)

Solution count 0

Solve interrupted
Best objective -, best bound 0.000000000000e+00, gap -

Gurobi 8.1.0 (linux64, Python) logging started Sun Mar 29 02:52:16 2020

Academic license - for non-commercial use only
Warning: Gurobi version mismatch between Python 8.1.1 and C library 8.1.0

Gurobi 8.1.0 (linux64, Python) logging started Sun Mar 29 02:53:08 2020

Academic license - for non-commercial use only
Warning: Gurobi version mismatch between Python 8.1.1 and C library 8.1.0

Gurobi 8.1.0 (linux64, Python) logging started Sun Mar 29 03:29:28 2020

Academic license - for non-commercial use only
Warning: Gurobi version mismatch between Python 8.1.1 and C library 8.1.0

Gurobi 8.1.0 (linux64, Python) logging started Sun Mar 29 03:30:27 2020

Academic license - for non-commercial use only
Warning: Gurobi version mismatch between Python 8.1.1 and C library 8.1.0

Gurobi 8.1.0 (linux64, Python) logging started Sun Mar 29 03:30:50 2020

Academic license - for non-commercial use only
Warning: Gurobi version mismatch between Python 8.1.1 and C library 8.1.0

Gurobi 8.1.0 (linux64, Python) logging started Sun Mar 29 03:36:42 2020

Academic license - for non-commercial use only
Warning: Gurobi version mismatch between Python 8.1.1 and C library 8.1.0

Gurobi 8.1.0 (linux64, Python) logging started Sun Mar 29 03:37:38 2020

Academic license - for non-commercial use only
Warning: Gurobi version mismatch between Python 8.1.1 and C library 8.1.0

Gurobi 8.1.0 (linux64, Python) logging started Sun Mar 29 03:45:13 2020

Academic license - for non-commercial use only
Warning: Gurobi version mismatch between Python 8.1.1 and C library 8.1.0

Gurobi 8.1.0 (linux64, Python) logging started Sun Mar 29 04:06:32 2020

Academic license - for non-commercial use only
Warning: Gurobi version mismatch between Python 8.1.1 and C library 8.1.0

Gurobi 8.1.0 (linux64, Python) logging started Sun Mar 29 04:06:44 2020

Academic license - for non-commercial use only
Warning: Gurobi version mismatch between Python 8.1.1 and C library 8.1.0

Gurobi 8.1.0 (linux64, Python) logging started Sun Mar 29 04:07:36 2020

Academic license - for non-commercial use only
Warning: Gurobi version mismatch between Python 8.1.1 and C library 8.1.0

Gurobi 8.1.0 (linux64, Python) logging started Sun Mar 29 04:18:01 2020

Academic license - for non-commercial use only
Warning: Gurobi version mismatch between Python 8.1.1 and C library 8.1.0

Gurobi 8.1.0 (linux64, Python) logging started Sun Mar 29 04:55:21 2020

Academic license - for non-commercial use only
Warning: Gurobi version mismatch between Python 8.1.1 and C library 8.1.0

Gurobi 8.1.0 (linux64, Python) logging started Sun Mar 29 04:58:14 2020

Academic license - for non-commercial use only
Warning: Gurobi version mismatch between Python 8.1.1 and C library 8.1.0

Gurobi 8.1.0 (linux64, Python) logging started Sun Mar 29 04:59:21 2020

Academic license - for non-commercial use only
Warning: Gurobi version mismatch between Python 8.1.1 and C library 8.1.0

Gurobi 8.1.0 (linux64, Python) logging started Sun Mar 29 04:59:55 2020

Academic license - for non-commercial use only
Warning: Gurobi version mismatch between Python 8.1.1 and C library 8.1.0

Gurobi 8.1.0 (linux64, Python) logging started Sun Mar 29 05:00:43 2020

Academic license - for non-commercial use only
Warning: Gurobi version mismatch between Python 8.1.1 and C library 8.1.0

Gurobi 8.1.0 (linux64, Python) logging started Sun Mar 29 05:01:38 2020

Academic license - for non-commercial use only
Warning: Gurobi version mismatch between Python 8.1.1 and C library 8.1.0

Gurobi 8.1.0 (linux64, Python) logging started Sun Mar 29 05:04:26 2020

Academic license - for non-commercial use only
Warning: Gurobi version mismatch between Python 8.1.1 and C library 8.1.0

Gurobi 8.1.0 (linux64, Python) logging started Sun Mar 29 05:04:52 2020

Academic license - for non-commercial use only
Warning: Gurobi version mismatch between Python 8.1.1 and C library 8.1.0

Gurobi 8.1.0 (linux64, Python) logging started Sun Mar 29 05:05:55 2020

Academic license - for non-commercial use only
Warning: Gurobi version mismatch between Python 8.1.1 and C library 8.1.0

Gurobi 8.1.0 (linux64, Python) logging started Sun Mar 29 05:06:24 2020

Academic license - for non-commercial use only
Warning: Gurobi version mismatch between Python 8.1.1 and C library 8.1.0

Gurobi 8.1.0 (linux64, Python) logging started Sun Mar 29 05:09:33 2020

Academic license - for non-commercial use only
Warning: Gurobi version mismatch between Python 8.1.1 and C library 8.1.0

Gurobi 8.1.0 (linux64, Python) logging started Sun Mar 29 05:09:56 2020

Academic license - for non-commercial use only
Warning: Gurobi version mismatch between Python 8.1.1 and C library 8.1.0

Gurobi 8.1.0 (linux64, Python) logging started Sun Mar 29 05:18:03 2020

Academic license - for non-commercial use only
Warning: Gurobi version mismatch between Python 8.1.1 and C library 8.1.0

Gurobi 8.1.0 (linux64, Python) logging started Sun Mar 29 05:20:13 2020

Academic license - for non-commercial use only
Warning: Gurobi version mismatch between Python 8.1.1 and C library 8.1.0

Gurobi 8.1.0 (linux64, Python) logging started Sun Mar 29 05:30:27 2020

Academic license - for non-commercial use only
Warning: Gurobi version mismatch between Python 8.1.1 and C library 8.1.0

Gurobi 8.1.0 (linux64, Python) logging started Sun Mar 29 05:30:47 2020

Academic license - for non-commercial use only
Warning: Gurobi version mismatch between Python 8.1.1 and C library 8.1.0

Gurobi 8.1.0 (linux64, Python) logging started Sun Mar 29 05:31:13 2020

Academic license - for non-commercial use only
Warning: Gurobi version mismatch between Python 8.1.1 and C library 8.1.0

Gurobi 8.1.0 (linux64, Python) logging started Sun Mar 29 05:32:48 2020

Academic license - for non-commercial use only
Warning: Gurobi version mismatch between Python 8.1.1 and C library 8.1.0

Gurobi 8.1.0 (linux64, Python) logging started Sun Mar 29 05:33:43 2020

Academic license - for non-commercial use only
Warning: Gurobi version mismatch between Python 8.1.1 and C library 8.1.0

Gurobi 8.1.0 (linux64, Python) logging started Sun Mar 29 05:34:56 2020

Academic license - for non-commercial use only
Warning: Gurobi version mismatch between Python 8.1.1 and C library 8.1.0

Gurobi 8.1.0 (linux64, Python) logging started Sun Mar 29 05:39:00 2020

Academic license - for non-commercial use only
Warning: Gurobi version mismatch between Python 8.1.1 and C library 8.1.0

Gurobi 8.1.0 (linux64, Python) logging started Sun Mar 29 05:39:47 2020

Academic license - for non-commercial use only
Warning: Gurobi version mismatch between Python 8.1.1 and C library 8.1.0

Gurobi 8.1.0 (linux64, Python) logging started Sun Mar 29 05:42:20 2020

Academic license - for non-commercial use only
Warning: Gurobi version mismatch between Python 8.1.1 and C library 8.1.0

Gurobi 8.1.0 (linux64, Python) logging started Sun Mar 29 05:42:41 2020

Academic license - for non-commercial use only
Warning: Gurobi version mismatch between Python 8.1.1 and C library 8.1.0

Gurobi 8.1.0 (linux64, Python) logging started Sun Mar 29 05:46:29 2020

Academic license - for non-commercial use only
Warning: Gurobi version mismatch between Python 8.1.1 and C library 8.1.0

Gurobi 8.1.0 (linux64, Python) logging started Sun Mar 29 05:52:22 2020

Academic license - for non-commercial use only
Warning: Gurobi version mismatch between Python 8.1.1 and C library 8.1.0

Gurobi 8.1.0 (linux64, Python) logging started Sun Mar 29 05:52:45 2020

Academic license - for non-commercial use only
Warning: Gurobi version mismatch between Python 8.1.1 and C library 8.1.0

Gurobi 8.1.0 (linux64, Python) logging started Sun Mar 29 05:56:47 2020

Academic license - for non-commercial use only
Warning: Gurobi version mismatch between Python 8.1.1 and C library 8.1.0

Gurobi 8.1.0 (linux64, Python) logging started Sun Mar 29 06:05:49 2020

Academic license - for non-commercial use only
Warning: Gurobi version mismatch between Python 8.1.1 and C library 8.1.0

Gurobi 8.1.0 (linux64, Python) logging started Sun Mar 29 06:06:31 2020

Academic license - for non-commercial use only
Warning: Gurobi version mismatch between Python 8.1.1 and C library 8.1.0

Gurobi 8.1.0 (linux64, Python) logging started Sun Mar 29 06:10:05 2020

Academic license - for non-commercial use only
Warning: Gurobi version mismatch between Python 8.1.1 and C library 8.1.0

Gurobi 8.1.0 (linux64, Python) logging started Mon Mar 30 09:55:27 2020

Academic license - for non-commercial use only
Warning: Gurobi version mismatch between Python 8.1.1 and C library 8.1.0
